c *********************************
c * Circuit generated by BenCGen
c *
c * RippleCarryAdderSubtractor_67_67_67_OutSunT
c *
c * Ports with 1 gate(s): 2
c * Ports with 2 gate(s): 404
c * Total gates: 406
c *********************************
p cnf 540 1418
1 204 0
-1 -204 0
1 -203 0
204 -203 0
-1 -204 203 0
203 205 0
-203 -205 0
68 203 -206 0
-68 203 206 0
68 -203 206 0
-68 -203 -206 0
69 203 -207 0
-69 203 207 0
69 -203 207 0
-69 -203 -207 0
70 203 -208 0
-70 203 208 0
70 -203 208 0
-70 -203 -208 0
71 203 -209 0
-71 203 209 0
71 -203 209 0
-71 -203 -209 0
72 203 -210 0
-72 203 210 0
72 -203 210 0
-72 -203 -210 0
73 203 -211 0
-73 203 211 0
73 -203 211 0
-73 -203 -211 0
74 203 -212 0
-74 203 212 0
74 -203 212 0
-74 -203 -212 0
75 203 -213 0
-75 203 213 0
75 -203 213 0
-75 -203 -213 0
76 203 -214 0
-76 203 214 0
76 -203 214 0
-76 -203 -214 0
77 203 -215 0
-77 203 215 0
77 -203 215 0
-77 -203 -215 0
78 203 -216 0
-78 203 216 0
78 -203 216 0
-78 -203 -216 0
79 203 -217 0
-79 203 217 0
79 -203 217 0
-79 -203 -217 0
80 203 -218 0
-80 203 218 0
80 -203 218 0
-80 -203 -218 0
81 203 -219 0
-81 203 219 0
81 -203 219 0
-81 -203 -219 0
82 203 -220 0
-82 203 220 0
82 -203 220 0
-82 -203 -220 0
83 203 -221 0
-83 203 221 0
83 -203 221 0
-83 -203 -221 0
84 203 -222 0
-84 203 222 0
84 -203 222 0
-84 -203 -222 0
85 203 -223 0
-85 203 223 0
85 -203 223 0
-85 -203 -223 0
86 203 -224 0
-86 203 224 0
86 -203 224 0
-86 -203 -224 0
87 203 -225 0
-87 203 225 0
87 -203 225 0
-87 -203 -225 0
88 203 -226 0
-88 203 226 0
88 -203 226 0
-88 -203 -226 0
89 203 -227 0
-89 203 227 0
89 -203 227 0
-89 -203 -227 0
90 203 -228 0
-90 203 228 0
90 -203 228 0
-90 -203 -228 0
91 203 -229 0
-91 203 229 0
91 -203 229 0
-91 -203 -229 0
92 203 -230 0
-92 203 230 0
92 -203 230 0
-92 -203 -230 0
93 203 -231 0
-93 203 231 0
93 -203 231 0
-93 -203 -231 0
94 203 -232 0
-94 203 232 0
94 -203 232 0
-94 -203 -232 0
95 203 -233 0
-95 203 233 0
95 -203 233 0
-95 -203 -233 0
96 203 -234 0
-96 203 234 0
96 -203 234 0
-96 -203 -234 0
97 203 -235 0
-97 203 235 0
97 -203 235 0
-97 -203 -235 0
98 203 -236 0
-98 203 236 0
98 -203 236 0
-98 -203 -236 0
99 203 -237 0
-99 203 237 0
99 -203 237 0
-99 -203 -237 0
100 203 -238 0
-100 203 238 0
100 -203 238 0
-100 -203 -238 0
101 203 -239 0
-101 203 239 0
101 -203 239 0
-101 -203 -239 0
102 203 -240 0
-102 203 240 0
102 -203 240 0
-102 -203 -240 0
103 203 -241 0
-103 203 241 0
103 -203 241 0
-103 -203 -241 0
104 203 -242 0
-104 203 242 0
104 -203 242 0
-104 -203 -242 0
105 203 -243 0
-105 203 243 0
105 -203 243 0
-105 -203 -243 0
106 203 -244 0
-106 203 244 0
106 -203 244 0
-106 -203 -244 0
107 203 -245 0
-107 203 245 0
107 -203 245 0
-107 -203 -245 0
108 203 -246 0
-108 203 246 0
108 -203 246 0
-108 -203 -246 0
109 203 -247 0
-109 203 247 0
109 -203 247 0
-109 -203 -247 0
110 203 -248 0
-110 203 248 0
110 -203 248 0
-110 -203 -248 0
111 203 -249 0
-111 203 249 0
111 -203 249 0
-111 -203 -249 0
112 203 -250 0
-112 203 250 0
112 -203 250 0
-112 -203 -250 0
113 203 -251 0
-113 203 251 0
113 -203 251 0
-113 -203 -251 0
114 203 -252 0
-114 203 252 0
114 -203 252 0
-114 -203 -252 0
115 203 -253 0
-115 203 253 0
115 -203 253 0
-115 -203 -253 0
116 203 -254 0
-116 203 254 0
116 -203 254 0
-116 -203 -254 0
117 203 -255 0
-117 203 255 0
117 -203 255 0
-117 -203 -255 0
118 203 -256 0
-118 203 256 0
118 -203 256 0
-118 -203 -256 0
119 203 -257 0
-119 203 257 0
119 -203 257 0
-119 -203 -257 0
120 203 -258 0
-120 203 258 0
120 -203 258 0
-120 -203 -258 0
121 203 -259 0
-121 203 259 0
121 -203 259 0
-121 -203 -259 0
122 203 -260 0
-122 203 260 0
122 -203 260 0
-122 -203 -260 0
123 203 -261 0
-123 203 261 0
123 -203 261 0
-123 -203 -261 0
124 203 -262 0
-124 203 262 0
124 -203 262 0
-124 -203 -262 0
125 203 -263 0
-125 203 263 0
125 -203 263 0
-125 -203 -263 0
126 203 -264 0
-126 203 264 0
126 -203 264 0
-126 -203 -264 0
127 203 -265 0
-127 203 265 0
127 -203 265 0
-127 -203 -265 0
128 203 -266 0
-128 203 266 0
128 -203 266 0
-128 -203 -266 0
129 203 -267 0
-129 203 267 0
129 -203 267 0
-129 -203 -267 0
130 203 -268 0
-130 203 268 0
130 -203 268 0
-130 -203 -268 0
131 203 -269 0
-131 203 269 0
131 -203 269 0
-131 -203 -269 0
132 203 -270 0
-132 203 270 0
132 -203 270 0
-132 -203 -270 0
133 203 -271 0
-133 203 271 0
133 -203 271 0
-133 -203 -271 0
134 203 -272 0
-134 203 272 0
134 -203 272 0
-134 -203 -272 0
1 206 -274 0
-1 206 274 0
1 -206 274 0
-1 -206 -274 0
274 203 -135 0
-274 203 135 0
274 -203 135 0
-274 -203 -135 0
203 -275 0
274 -275 0
-203 -274 275 0
206 -276 0
1 -276 0
-206 -1 276 0
-275 273 0
-276 273 0
275 276 -273 0
2 207 -278 0
-2 207 278 0
2 -207 278 0
-2 -207 -278 0
278 273 -136 0
-278 273 136 0
278 -273 136 0
-278 -273 -136 0
273 -279 0
278 -279 0
-273 -278 279 0
207 -280 0
2 -280 0
-207 -2 280 0
-279 277 0
-280 277 0
279 280 -277 0
3 208 -282 0
-3 208 282 0
3 -208 282 0
-3 -208 -282 0
282 277 -137 0
-282 277 137 0
282 -277 137 0
-282 -277 -137 0
277 -283 0
282 -283 0
-277 -282 283 0
208 -284 0
3 -284 0
-208 -3 284 0
-283 281 0
-284 281 0
283 284 -281 0
4 209 -286 0
-4 209 286 0
4 -209 286 0
-4 -209 -286 0
286 281 -138 0
-286 281 138 0
286 -281 138 0
-286 -281 -138 0
281 -287 0
286 -287 0
-281 -286 287 0
209 -288 0
4 -288 0
-209 -4 288 0
-287 285 0
-288 285 0
287 288 -285 0
5 210 -290 0
-5 210 290 0
5 -210 290 0
-5 -210 -290 0
290 285 -139 0
-290 285 139 0
290 -285 139 0
-290 -285 -139 0
285 -291 0
290 -291 0
-285 -290 291 0
210 -292 0
5 -292 0
-210 -5 292 0
-291 289 0
-292 289 0
291 292 -289 0
6 211 -294 0
-6 211 294 0
6 -211 294 0
-6 -211 -294 0
294 289 -140 0
-294 289 140 0
294 -289 140 0
-294 -289 -140 0
289 -295 0
294 -295 0
-289 -294 295 0
211 -296 0
6 -296 0
-211 -6 296 0
-295 293 0
-296 293 0
295 296 -293 0
7 212 -298 0
-7 212 298 0
7 -212 298 0
-7 -212 -298 0
298 293 -141 0
-298 293 141 0
298 -293 141 0
-298 -293 -141 0
293 -299 0
298 -299 0
-293 -298 299 0
212 -300 0
7 -300 0
-212 -7 300 0
-299 297 0
-300 297 0
299 300 -297 0
8 213 -302 0
-8 213 302 0
8 -213 302 0
-8 -213 -302 0
302 297 -142 0
-302 297 142 0
302 -297 142 0
-302 -297 -142 0
297 -303 0
302 -303 0
-297 -302 303 0
213 -304 0
8 -304 0
-213 -8 304 0
-303 301 0
-304 301 0
303 304 -301 0
9 214 -306 0
-9 214 306 0
9 -214 306 0
-9 -214 -306 0
306 301 -143 0
-306 301 143 0
306 -301 143 0
-306 -301 -143 0
301 -307 0
306 -307 0
-301 -306 307 0
214 -308 0
9 -308 0
-214 -9 308 0
-307 305 0
-308 305 0
307 308 -305 0
10 215 -310 0
-10 215 310 0
10 -215 310 0
-10 -215 -310 0
310 305 -144 0
-310 305 144 0
310 -305 144 0
-310 -305 -144 0
305 -311 0
310 -311 0
-305 -310 311 0
215 -312 0
10 -312 0
-215 -10 312 0
-311 309 0
-312 309 0
311 312 -309 0
11 216 -314 0
-11 216 314 0
11 -216 314 0
-11 -216 -314 0
314 309 -145 0
-314 309 145 0
314 -309 145 0
-314 -309 -145 0
309 -315 0
314 -315 0
-309 -314 315 0
216 -316 0
11 -316 0
-216 -11 316 0
-315 313 0
-316 313 0
315 316 -313 0
12 217 -318 0
-12 217 318 0
12 -217 318 0
-12 -217 -318 0
318 313 -146 0
-318 313 146 0
318 -313 146 0
-318 -313 -146 0
313 -319 0
318 -319 0
-313 -318 319 0
217 -320 0
12 -320 0
-217 -12 320 0
-319 317 0
-320 317 0
319 320 -317 0
13 218 -322 0
-13 218 322 0
13 -218 322 0
-13 -218 -322 0
322 317 -147 0
-322 317 147 0
322 -317 147 0
-322 -317 -147 0
317 -323 0
322 -323 0
-317 -322 323 0
218 -324 0
13 -324 0
-218 -13 324 0
-323 321 0
-324 321 0
323 324 -321 0
14 219 -326 0
-14 219 326 0
14 -219 326 0
-14 -219 -326 0
326 321 -148 0
-326 321 148 0
326 -321 148 0
-326 -321 -148 0
321 -327 0
326 -327 0
-321 -326 327 0
219 -328 0
14 -328 0
-219 -14 328 0
-327 325 0
-328 325 0
327 328 -325 0
15 220 -330 0
-15 220 330 0
15 -220 330 0
-15 -220 -330 0
330 325 -149 0
-330 325 149 0
330 -325 149 0
-330 -325 -149 0
325 -331 0
330 -331 0
-325 -330 331 0
220 -332 0
15 -332 0
-220 -15 332 0
-331 329 0
-332 329 0
331 332 -329 0
16 221 -334 0
-16 221 334 0
16 -221 334 0
-16 -221 -334 0
334 329 -150 0
-334 329 150 0
334 -329 150 0
-334 -329 -150 0
329 -335 0
334 -335 0
-329 -334 335 0
221 -336 0
16 -336 0
-221 -16 336 0
-335 333 0
-336 333 0
335 336 -333 0
17 222 -338 0
-17 222 338 0
17 -222 338 0
-17 -222 -338 0
338 333 -151 0
-338 333 151 0
338 -333 151 0
-338 -333 -151 0
333 -339 0
338 -339 0
-333 -338 339 0
222 -340 0
17 -340 0
-222 -17 340 0
-339 337 0
-340 337 0
339 340 -337 0
18 223 -342 0
-18 223 342 0
18 -223 342 0
-18 -223 -342 0
342 337 -152 0
-342 337 152 0
342 -337 152 0
-342 -337 -152 0
337 -343 0
342 -343 0
-337 -342 343 0
223 -344 0
18 -344 0
-223 -18 344 0
-343 341 0
-344 341 0
343 344 -341 0
19 224 -346 0
-19 224 346 0
19 -224 346 0
-19 -224 -346 0
346 341 -153 0
-346 341 153 0
346 -341 153 0
-346 -341 -153 0
341 -347 0
346 -347 0
-341 -346 347 0
224 -348 0
19 -348 0
-224 -19 348 0
-347 345 0
-348 345 0
347 348 -345 0
20 225 -350 0
-20 225 350 0
20 -225 350 0
-20 -225 -350 0
350 345 -154 0
-350 345 154 0
350 -345 154 0
-350 -345 -154 0
345 -351 0
350 -351 0
-345 -350 351 0
225 -352 0
20 -352 0
-225 -20 352 0
-351 349 0
-352 349 0
351 352 -349 0
21 226 -354 0
-21 226 354 0
21 -226 354 0
-21 -226 -354 0
354 349 -155 0
-354 349 155 0
354 -349 155 0
-354 -349 -155 0
349 -355 0
354 -355 0
-349 -354 355 0
226 -356 0
21 -356 0
-226 -21 356 0
-355 353 0
-356 353 0
355 356 -353 0
22 227 -358 0
-22 227 358 0
22 -227 358 0
-22 -227 -358 0
358 353 -156 0
-358 353 156 0
358 -353 156 0
-358 -353 -156 0
353 -359 0
358 -359 0
-353 -358 359 0
227 -360 0
22 -360 0
-227 -22 360 0
-359 357 0
-360 357 0
359 360 -357 0
23 228 -362 0
-23 228 362 0
23 -228 362 0
-23 -228 -362 0
362 357 -157 0
-362 357 157 0
362 -357 157 0
-362 -357 -157 0
357 -363 0
362 -363 0
-357 -362 363 0
228 -364 0
23 -364 0
-228 -23 364 0
-363 361 0
-364 361 0
363 364 -361 0
24 229 -366 0
-24 229 366 0
24 -229 366 0
-24 -229 -366 0
366 361 -158 0
-366 361 158 0
366 -361 158 0
-366 -361 -158 0
361 -367 0
366 -367 0
-361 -366 367 0
229 -368 0
24 -368 0
-229 -24 368 0
-367 365 0
-368 365 0
367 368 -365 0
25 230 -370 0
-25 230 370 0
25 -230 370 0
-25 -230 -370 0
370 365 -159 0
-370 365 159 0
370 -365 159 0
-370 -365 -159 0
365 -371 0
370 -371 0
-365 -370 371 0
230 -372 0
25 -372 0
-230 -25 372 0
-371 369 0
-372 369 0
371 372 -369 0
26 231 -374 0
-26 231 374 0
26 -231 374 0
-26 -231 -374 0
374 369 -160 0
-374 369 160 0
374 -369 160 0
-374 -369 -160 0
369 -375 0
374 -375 0
-369 -374 375 0
231 -376 0
26 -376 0
-231 -26 376 0
-375 373 0
-376 373 0
375 376 -373 0
27 232 -378 0
-27 232 378 0
27 -232 378 0
-27 -232 -378 0
378 373 -161 0
-378 373 161 0
378 -373 161 0
-378 -373 -161 0
373 -379 0
378 -379 0
-373 -378 379 0
232 -380 0
27 -380 0
-232 -27 380 0
-379 377 0
-380 377 0
379 380 -377 0
28 233 -382 0
-28 233 382 0
28 -233 382 0
-28 -233 -382 0
382 377 -162 0
-382 377 162 0
382 -377 162 0
-382 -377 -162 0
377 -383 0
382 -383 0
-377 -382 383 0
233 -384 0
28 -384 0
-233 -28 384 0
-383 381 0
-384 381 0
383 384 -381 0
29 234 -386 0
-29 234 386 0
29 -234 386 0
-29 -234 -386 0
386 381 -163 0
-386 381 163 0
386 -381 163 0
-386 -381 -163 0
381 -387 0
386 -387 0
-381 -386 387 0
234 -388 0
29 -388 0
-234 -29 388 0
-387 385 0
-388 385 0
387 388 -385 0
30 235 -390 0
-30 235 390 0
30 -235 390 0
-30 -235 -390 0
390 385 -164 0
-390 385 164 0
390 -385 164 0
-390 -385 -164 0
385 -391 0
390 -391 0
-385 -390 391 0
235 -392 0
30 -392 0
-235 -30 392 0
-391 389 0
-392 389 0
391 392 -389 0
31 236 -394 0
-31 236 394 0
31 -236 394 0
-31 -236 -394 0
394 389 -165 0
-394 389 165 0
394 -389 165 0
-394 -389 -165 0
389 -395 0
394 -395 0
-389 -394 395 0
236 -396 0
31 -396 0
-236 -31 396 0
-395 393 0
-396 393 0
395 396 -393 0
32 237 -398 0
-32 237 398 0
32 -237 398 0
-32 -237 -398 0
398 393 -166 0
-398 393 166 0
398 -393 166 0
-398 -393 -166 0
393 -399 0
398 -399 0
-393 -398 399 0
237 -400 0
32 -400 0
-237 -32 400 0
-399 397 0
-400 397 0
399 400 -397 0
33 238 -402 0
-33 238 402 0
33 -238 402 0
-33 -238 -402 0
402 397 -167 0
-402 397 167 0
402 -397 167 0
-402 -397 -167 0
397 -403 0
402 -403 0
-397 -402 403 0
238 -404 0
33 -404 0
-238 -33 404 0
-403 401 0
-404 401 0
403 404 -401 0
34 239 -406 0
-34 239 406 0
34 -239 406 0
-34 -239 -406 0
406 401 -168 0
-406 401 168 0
406 -401 168 0
-406 -401 -168 0
401 -407 0
406 -407 0
-401 -406 407 0
239 -408 0
34 -408 0
-239 -34 408 0
-407 405 0
-408 405 0
407 408 -405 0
35 240 -410 0
-35 240 410 0
35 -240 410 0
-35 -240 -410 0
410 405 -169 0
-410 405 169 0
410 -405 169 0
-410 -405 -169 0
405 -411 0
410 -411 0
-405 -410 411 0
240 -412 0
35 -412 0
-240 -35 412 0
-411 409 0
-412 409 0
411 412 -409 0
36 241 -414 0
-36 241 414 0
36 -241 414 0
-36 -241 -414 0
414 409 -170 0
-414 409 170 0
414 -409 170 0
-414 -409 -170 0
409 -415 0
414 -415 0
-409 -414 415 0
241 -416 0
36 -416 0
-241 -36 416 0
-415 413 0
-416 413 0
415 416 -413 0
37 242 -418 0
-37 242 418 0
37 -242 418 0
-37 -242 -418 0
418 413 -171 0
-418 413 171 0
418 -413 171 0
-418 -413 -171 0
413 -419 0
418 -419 0
-413 -418 419 0
242 -420 0
37 -420 0
-242 -37 420 0
-419 417 0
-420 417 0
419 420 -417 0
38 243 -422 0
-38 243 422 0
38 -243 422 0
-38 -243 -422 0
422 417 -172 0
-422 417 172 0
422 -417 172 0
-422 -417 -172 0
417 -423 0
422 -423 0
-417 -422 423 0
243 -424 0
38 -424 0
-243 -38 424 0
-423 421 0
-424 421 0
423 424 -421 0
39 244 -426 0
-39 244 426 0
39 -244 426 0
-39 -244 -426 0
426 421 -173 0
-426 421 173 0
426 -421 173 0
-426 -421 -173 0
421 -427 0
426 -427 0
-421 -426 427 0
244 -428 0
39 -428 0
-244 -39 428 0
-427 425 0
-428 425 0
427 428 -425 0
40 245 -430 0
-40 245 430 0
40 -245 430 0
-40 -245 -430 0
430 425 -174 0
-430 425 174 0
430 -425 174 0
-430 -425 -174 0
425 -431 0
430 -431 0
-425 -430 431 0
245 -432 0
40 -432 0
-245 -40 432 0
-431 429 0
-432 429 0
431 432 -429 0
41 246 -434 0
-41 246 434 0
41 -246 434 0
-41 -246 -434 0
434 429 -175 0
-434 429 175 0
434 -429 175 0
-434 -429 -175 0
429 -435 0
434 -435 0
-429 -434 435 0
246 -436 0
41 -436 0
-246 -41 436 0
-435 433 0
-436 433 0
435 436 -433 0
42 247 -438 0
-42 247 438 0
42 -247 438 0
-42 -247 -438 0
438 433 -176 0
-438 433 176 0
438 -433 176 0
-438 -433 -176 0
433 -439 0
438 -439 0
-433 -438 439 0
247 -440 0
42 -440 0
-247 -42 440 0
-439 437 0
-440 437 0
439 440 -437 0
43 248 -442 0
-43 248 442 0
43 -248 442 0
-43 -248 -442 0
442 437 -177 0
-442 437 177 0
442 -437 177 0
-442 -437 -177 0
437 -443 0
442 -443 0
-437 -442 443 0
248 -444 0
43 -444 0
-248 -43 444 0
-443 441 0
-444 441 0
443 444 -441 0
44 249 -446 0
-44 249 446 0
44 -249 446 0
-44 -249 -446 0
446 441 -178 0
-446 441 178 0
446 -441 178 0
-446 -441 -178 0
441 -447 0
446 -447 0
-441 -446 447 0
249 -448 0
44 -448 0
-249 -44 448 0
-447 445 0
-448 445 0
447 448 -445 0
45 250 -450 0
-45 250 450 0
45 -250 450 0
-45 -250 -450 0
450 445 -179 0
-450 445 179 0
450 -445 179 0
-450 -445 -179 0
445 -451 0
450 -451 0
-445 -450 451 0
250 -452 0
45 -452 0
-250 -45 452 0
-451 449 0
-452 449 0
451 452 -449 0
46 251 -454 0
-46 251 454 0
46 -251 454 0
-46 -251 -454 0
454 449 -180 0
-454 449 180 0
454 -449 180 0
-454 -449 -180 0
449 -455 0
454 -455 0
-449 -454 455 0
251 -456 0
46 -456 0
-251 -46 456 0
-455 453 0
-456 453 0
455 456 -453 0
47 252 -458 0
-47 252 458 0
47 -252 458 0
-47 -252 -458 0
458 453 -181 0
-458 453 181 0
458 -453 181 0
-458 -453 -181 0
453 -459 0
458 -459 0
-453 -458 459 0
252 -460 0
47 -460 0
-252 -47 460 0
-459 457 0
-460 457 0
459 460 -457 0
48 253 -462 0
-48 253 462 0
48 -253 462 0
-48 -253 -462 0
462 457 -182 0
-462 457 182 0
462 -457 182 0
-462 -457 -182 0
457 -463 0
462 -463 0
-457 -462 463 0
253 -464 0
48 -464 0
-253 -48 464 0
-463 461 0
-464 461 0
463 464 -461 0
49 254 -466 0
-49 254 466 0
49 -254 466 0
-49 -254 -466 0
466 461 -183 0
-466 461 183 0
466 -461 183 0
-466 -461 -183 0
461 -467 0
466 -467 0
-461 -466 467 0
254 -468 0
49 -468 0
-254 -49 468 0
-467 465 0
-468 465 0
467 468 -465 0
50 255 -470 0
-50 255 470 0
50 -255 470 0
-50 -255 -470 0
470 465 -184 0
-470 465 184 0
470 -465 184 0
-470 -465 -184 0
465 -471 0
470 -471 0
-465 -470 471 0
255 -472 0
50 -472 0
-255 -50 472 0
-471 469 0
-472 469 0
471 472 -469 0
51 256 -474 0
-51 256 474 0
51 -256 474 0
-51 -256 -474 0
474 469 -185 0
-474 469 185 0
474 -469 185 0
-474 -469 -185 0
469 -475 0
474 -475 0
-469 -474 475 0
256 -476 0
51 -476 0
-256 -51 476 0
-475 473 0
-476 473 0
475 476 -473 0
52 257 -478 0
-52 257 478 0
52 -257 478 0
-52 -257 -478 0
478 473 -186 0
-478 473 186 0
478 -473 186 0
-478 -473 -186 0
473 -479 0
478 -479 0
-473 -478 479 0
257 -480 0
52 -480 0
-257 -52 480 0
-479 477 0
-480 477 0
479 480 -477 0
53 258 -482 0
-53 258 482 0
53 -258 482 0
-53 -258 -482 0
482 477 -187 0
-482 477 187 0
482 -477 187 0
-482 -477 -187 0
477 -483 0
482 -483 0
-477 -482 483 0
258 -484 0
53 -484 0
-258 -53 484 0
-483 481 0
-484 481 0
483 484 -481 0
54 259 -486 0
-54 259 486 0
54 -259 486 0
-54 -259 -486 0
486 481 -188 0
-486 481 188 0
486 -481 188 0
-486 -481 -188 0
481 -487 0
486 -487 0
-481 -486 487 0
259 -488 0
54 -488 0
-259 -54 488 0
-487 485 0
-488 485 0
487 488 -485 0
55 260 -490 0
-55 260 490 0
55 -260 490 0
-55 -260 -490 0
490 485 -189 0
-490 485 189 0
490 -485 189 0
-490 -485 -189 0
485 -491 0
490 -491 0
-485 -490 491 0
260 -492 0
55 -492 0
-260 -55 492 0
-491 489 0
-492 489 0
491 492 -489 0
56 261 -494 0
-56 261 494 0
56 -261 494 0
-56 -261 -494 0
494 489 -190 0
-494 489 190 0
494 -489 190 0
-494 -489 -190 0
489 -495 0
494 -495 0
-489 -494 495 0
261 -496 0
56 -496 0
-261 -56 496 0
-495 493 0
-496 493 0
495 496 -493 0
57 262 -498 0
-57 262 498 0
57 -262 498 0
-57 -262 -498 0
498 493 -191 0
-498 493 191 0
498 -493 191 0
-498 -493 -191 0
493 -499 0
498 -499 0
-493 -498 499 0
262 -500 0
57 -500 0
-262 -57 500 0
-499 497 0
-500 497 0
499 500 -497 0
58 263 -502 0
-58 263 502 0
58 -263 502 0
-58 -263 -502 0
502 497 -192 0
-502 497 192 0
502 -497 192 0
-502 -497 -192 0
497 -503 0
502 -503 0
-497 -502 503 0
263 -504 0
58 -504 0
-263 -58 504 0
-503 501 0
-504 501 0
503 504 -501 0
59 264 -506 0
-59 264 506 0
59 -264 506 0
-59 -264 -506 0
506 501 -193 0
-506 501 193 0
506 -501 193 0
-506 -501 -193 0
501 -507 0
506 -507 0
-501 -506 507 0
264 -508 0
59 -508 0
-264 -59 508 0
-507 505 0
-508 505 0
507 508 -505 0
60 265 -510 0
-60 265 510 0
60 -265 510 0
-60 -265 -510 0
510 505 -194 0
-510 505 194 0
510 -505 194 0
-510 -505 -194 0
505 -511 0
510 -511 0
-505 -510 511 0
265 -512 0
60 -512 0
-265 -60 512 0
-511 509 0
-512 509 0
511 512 -509 0
61 266 -514 0
-61 266 514 0
61 -266 514 0
-61 -266 -514 0
514 509 -195 0
-514 509 195 0
514 -509 195 0
-514 -509 -195 0
509 -515 0
514 -515 0
-509 -514 515 0
266 -516 0
61 -516 0
-266 -61 516 0
-515 513 0
-516 513 0
515 516 -513 0
62 267 -518 0
-62 267 518 0
62 -267 518 0
-62 -267 -518 0
518 513 -196 0
-518 513 196 0
518 -513 196 0
-518 -513 -196 0
513 -519 0
518 -519 0
-513 -518 519 0
267 -520 0
62 -520 0
-267 -62 520 0
-519 517 0
-520 517 0
519 520 -517 0
63 268 -522 0
-63 268 522 0
63 -268 522 0
-63 -268 -522 0
522 517 -197 0
-522 517 197 0
522 -517 197 0
-522 -517 -197 0
517 -523 0
522 -523 0
-517 -522 523 0
268 -524 0
63 -524 0
-268 -63 524 0
-523 521 0
-524 521 0
523 524 -521 0
64 269 -526 0
-64 269 526 0
64 -269 526 0
-64 -269 -526 0
526 521 -198 0
-526 521 198 0
526 -521 198 0
-526 -521 -198 0
521 -527 0
526 -527 0
-521 -526 527 0
269 -528 0
64 -528 0
-269 -64 528 0
-527 525 0
-528 525 0
527 528 -525 0
65 270 -530 0
-65 270 530 0
65 -270 530 0
-65 -270 -530 0
530 525 -199 0
-530 525 199 0
530 -525 199 0
-530 -525 -199 0
525 -531 0
530 -531 0
-525 -530 531 0
270 -532 0
65 -532 0
-270 -65 532 0
-531 529 0
-532 529 0
531 532 -529 0
66 271 -534 0
-66 271 534 0
66 -271 534 0
-66 -271 -534 0
534 529 -200 0
-534 529 200 0
534 -529 200 0
-534 -529 -200 0
529 -535 0
534 -535 0
-529 -534 535 0
271 -536 0
66 -536 0
-271 -66 536 0
-535 533 0
-536 533 0
535 536 -533 0
67 272 -538 0
-67 272 538 0
67 -272 538 0
-67 -272 -538 0
538 533 -201 0
-538 533 201 0
538 -533 201 0
-538 -533 -201 0
533 -539 0
538 -539 0
-533 -538 539 0
272 -540 0
67 -540 0
-272 -67 540 0
-539 537 0
-540 537 0
539 540 -537 0
537 203 -202 0
-537 203 202 0
537 -203 202 0
-537 -203 -202 0
